(declare-fun e () String)
(declare-fun g () String)
(declare-fun b () String)
(declare-fun d () String)
(declare-fun f () String)
(declare-fun a () String)
(declare-fun h () String)
(assert (= (str.++ h "hbb") (str.++ f "fe")))
(assert (= (str.++ f "bbgg") (str.++ h "c" d e a)))
(assert (= (str.++ "ch" b "bh" g) (str.++ "eh" e "afb")))

(check-sat)
